Set parameter Username
Set parameter Threads to value 1
Academic license - for non-commercial use only - expires 2022-07-11
Set parameter TimeLimit to value 300
Gurobi Optimizer version 9.5.1 build v9.5.1rc2 (linux64)
Thread count: 2 physical cores, 4 logical processors, using up to 1 threads
Optimize a model with 1004 rows, 903 columns and 4281 nonzeros
Model fingerprint: 0x351dbcde
Variable types: 40 continuous, 863 integer (863 binary)
Coefficient statistics:
  Matrix range     [1e-01, 4e+02]
  Objective range  [3e-02, 4e-01]
  Bounds range     [1e+00, 1e+00]
  RHS range        [1e+00, 1e+03]
Presolve removed 312 rows and 74 columns
Presolve time: 0.04s
Presolved: 692 rows, 829 columns, 3580 nonzeros
Variable types: 39 continuous, 790 integer (790 binary)
Found heuristic solution: objective 3.4515709

Root relaxation: objective 2.253059e+00, 753 iterations, 0.02 seconds (0.01 work units)

    Nodes    |    Current Node    |     Objective Bounds      |     Work
 Expl Unexpl |  Obj  Depth IntInf | Incumbent    BestBd   Gap | It/Node Time

     0     0    2.25306    0  114    3.45157    2.25306  34.7%     -    0s
H    0     0                       2.9452897    2.25306  23.5%     -    0s
H    0     0                       2.8319453    2.25306  20.4%     -    0s
     0     0    2.34164    0  106    2.83195    2.34164  17.3%     -    0s
     0     0    2.35163    0  112    2.83195    2.35163  17.0%     -    0s
     0     0    2.44304    0   98    2.83195    2.44304  13.7%     -    0s
H    0     0                       2.8301512    2.44304  13.7%     -    0s
     0     0    2.44929    0  124    2.83015    2.44929  13.5%     -    0s
     0     0    2.47680    0   99    2.83015    2.47680  12.5%     -    0s
     0     0    2.49571    0  127    2.83015    2.49571  11.8%     -    0s
     0     0    2.49853    0  105    2.83015    2.49853  11.7%     -    0s
     0     0    2.49962    0  118    2.83015    2.49962  11.7%     -    0s
     0     0    2.49987    0  117    2.83015    2.49987  11.7%     -    0s
     0     0    2.50003    0  129    2.83015    2.50003  11.7%     -    0s
     0     0    2.50005    0  129    2.83015    2.50005  11.7%     -    0s
     0     0    2.52194    0  109    2.83015    2.52194  10.9%     -    0s
     0     0    2.52571    0  137    2.83015    2.52571  10.8%     -    0s
     0     0    2.52727    0   80    2.83015    2.52727  10.7%     -    0s
     0     0    2.52748    0   89    2.83015    2.52748  10.7%     -    0s
     0     0    2.53103    0   86    2.83015    2.53103  10.6%     -    0s
H    0     0                       2.7855876    2.53103  9.14%     -    0s
     0     0    2.53212    0   86    2.78559    2.53212  9.10%     -    0s
     0     0    2.53266    0   75    2.78559    2.53266  9.08%     -    0s
     0     0    2.53268    0   84    2.78559    2.53268  9.08%     -    0s
     0     0    2.53384    0  126    2.78559    2.53384  9.04%     -    0s
H    0     0                       2.7126021    2.53384  6.59%     -    0s
     0     0    2.53453    0  118    2.71260    2.53453  6.56%     -    0s
     0     0    2.53460    0  117    2.71260    2.53460  6.56%     -    0s
     0     0    2.53803    0  123    2.71260    2.53803  6.44%     -    0s
     0     0    2.53861    0  114    2.71260    2.53861  6.41%     -    0s
     0     0    2.53874    0  123    2.71260    2.53874  6.41%     -    0s
     0     0    2.54099    0  124    2.71260    2.54099  6.33%     -    0s
H    0     0                       2.6863323    2.54099  5.41%     -    0s
     0     0    2.54158    0  119    2.68633    2.54158  5.39%     -    0s
     0     0    2.54159    0  120    2.68633    2.54159  5.39%     -    0s
     0     0    2.54302    0  118    2.68633    2.54302  5.33%     -    0s
     0     0    2.54302    0  114    2.68633    2.54302  5.33%     -    0s
     0     2    2.54358    0  114    2.68633    2.54358  5.31%     -    0s
H  587   185                       2.6771052    2.59082  3.22%  48.0    2s

Cutting planes:
  Gomory: 1
  Cover: 54
  Implied bound: 23
  Clique: 10
  MIR: 145
  StrongCG: 7
  Inf proof: 2
  RLT: 42
  Relax-and-lift: 174

Explored 1331 nodes (59168 simplex iterations) in 4.07 seconds (2.76 work units)
Thread count was 1 (of 4 available processors)

Solution count 8: 2.67711 2.68633 2.7126 ... 3.45157

Optimal solution found (tolerance 1.00e-04)
Best objective 2.677105221046e+00, best bound 2.677069480792e+00, gap 0.0013%
